6
   -115.43477420       0.02215026
C       -0.010993435705733   -0.009848039591331   -1.267232051156764
H       -0.010993435705733   -0.009848039591331    0.024018808843236
H        1.045433304294267   -0.009848039591331   -1.512755681156764
H       -0.532760645705734   -0.923302209591332   -1.528641961156764
H       -0.532112265705733    0.904769630408669   -1.525852151156764
O        0.010162434294267    0.009794530408669    1.236658908843236
6
   -115.43244761       0.03382478
C       -0.028207981364402   -0.018255660519139   -1.287808439013671
H        0.052271125382109   -0.041015088259006   -0.042613575301020
H        1.082473720696628    0.043864786328157   -1.462385254516838
H       -0.520441216235231   -0.916990513722511   -1.629460308696578
H       -0.474420126582899    0.931087806321235   -1.579629763499783
O        0.012342976829412    0.012624042757640    1.262855674185607